c generated by Julia
p edge 29 203
e 1 2
e 1 3
e 2 3
e 1 4
e 2 4
e 1 5
e 2 5
e 1 6
e 2 6
e 5 6
e 1 7
e 2 7
e 3 7
e 1 8
e 2 8
e 4 8
e 6 8
e 7 8
e 1 9
e 4 9
e 6 9
e 1 10
e 4 10
e 5 10
e 9 10
e 1 11
e 3 11
e 5 11
e 6 11
e 9 11
e 1 12
e 3 12
e 4 12
e 8 12
e 9 12
e 10 12
e 1 13
e 3 13
e 5 13
e 7 13
e 10 13
e 11 13
e 12 13
e 1 14
e 3 14
e 4 14
e 7 14
e 9 14
e 11 14
e 1 15
e 5 15
e 6 15
e 7 15
e 8 15
e 10 15
e 14 15
e 2 16
e 3 16
e 4 16
e 10 16
e 11 16
e 14 16
e 15 16
e 2 17
e 5 17
e 7 17
e 9 17
e 10 17
e 12 17
e 15 17
e 16 17
e 2 18
e 3 18
e 5 18
e 7 18
e 9 18
e 10 18
e 14 18
e 17 18
e 2 19
e 4 19
e 7 19
e 8 19
e 9 19
e 11 19
e 13 19
e 16 19
e 17 19
e 2 20
e 3 20
e 6 20
e 8 20
e 10 20
e 12 20
e 13 20
e 16 20
e 18 20
e 2 21
e 4 21
e 5 21
e 6 21
e 9 21
e 13 21
e 14 21
e 18 21
e 19 21
e 20 21
e 2 22
e 3 22
e 4 22
e 5 22
e 6 22
e 11 22
e 12 22
e 16 22
e 17 22
e 5 23
e 8 23
e 11 23
e 12 23
e 13 23
e 14 23
e 15 23
e 16 23
e 17 23
e 19 23
e 20 23
e 21 23
e 3 24
e 6 24
e 7 24
e 9 24
e 12 24
e 13 24
e 15 24
e 17 24
e 19 24
e 21 24
e 22 24
e 4 25
e 6 25
e 7 25
e 10 25
e 13 25
e 14 25
e 15 25
e 16 25
e 20 25
e 21 25
e 22 25
e 24 25
e 6 26
e 7 26
e 8 26
e 9 26
e 11 26
e 12 26
e 14 26
e 17 26
e 18 26
e 20 26
e 22 26
e 23 26
e 25 26
e 3 27
e 6 27
e 8 27
e 9 27
e 10 27
e 11 27
e 15 27
e 16 27
e 18 27
e 19 27
e 20 27
e 24 27
e 3 28
e 4 28
e 5 28
e 8 28
e 12 28
e 14 28
e 15 28
e 18 28
e 21 28
e 22 28
e 23 28
e 24 28
e 27 28
e 4 29
e 5 29
e 7 29
e 8 29
e 10 29
e 11 29
e 13 29
e 18 29
e 19 29
e 22 29
e 25 29
e 26 29
e 27 29
e 28 29
